97 151 194 180 156 38 136 87 179 141 109 91 77 162 116 153 106 95 139 96 120 150 118 169 199 127 43 133 189 79 83 37 71 86 114 52 175 157 11 68 59 32 144 183 41 159 81 149 3 98 174 55 0 16 197 186 121 25 146 34 107 161 28 100 89 140 84 177 12 187 190 75 44 49 26 124 31 88 148 10 155 22 57 103 13 61 138 58 90 172 158 152 178 85 39 73 125 126 54 147 63 70 48 171 191 82 60 163 80 8 129 117 17 6 170 110 142 166 195 112 104 15 115 69 78 145 46 143 113 135 27 1 101 184 108 196 94 23 20 18 173 122 182 102 35 50 192 67 33 131 168 130 128 2 176 51 40 92 72 65 154 36 76 4 193 93 74 19 99 14 56 185 42 5 9 62 134 7 167 198 111 137 30 21 53 132 181 105 64 164 29 47 66 45 123 119 188 160 24 165 

